; benchmark generated from python API
(set-info :status unknown)
(declare-fun A_0 () Real)
(declare-fun S_0 () Real)
(declare-fun L_0 () Real)
(declare-fun L0 () Real)
(declare-fun C () Real)
(declare-fun S_3 () Real)
(declare-fun S_4 () Real)
(declare-fun S_1 () Real)
(declare-fun L_1 () Real)
(declare-fun A_3 () Real)
(declare-fun S_2 () Real)
(declare-fun A_2 () Real)
(declare-fun L_2 () Real)
(declare-fun B () Real)
(declare-fun A_1 () Real)
(declare-fun L_3 () Real)
(declare-fun A_4 () Real)
(assert
 (let (($x37 (>= L0 0.0)))
 (let (($x559 (>= C 5.0)))
 (let (($x3620 (>= S_4 (+ A_3 (* (- 1.0) L_1)))))
 (let ((?x479 (* (- 1.0) L_0)))
 (let ((?x744 (+ A_0 ?x479)))
 (let ((?x1042 (* (- 2.0) C)))
 (let ((?x473 (* (- 1.0) L_2)))
 (let ((?x536 (* (- 1.0) B)))
 (let ((?x459 (+ ?x536 ?x473 A_2 ?x1042)))
 (let (($x7362 (<= (+ A_3 (* (- 1.0) A_2) (* (- 1.0) C)) 0.0)))
 (let (($x819 (not (<= L_3 L_2))))
 (let (($x54 (= L_1 L_0)))
 (let (($x7655 (<= A_3 (+ A_1 ?x536 (* 2.0 C)))))
 (let (($x3661 (= L_3 L_0)))
 (let (($x1394 (not (= L_0 L_2))))
 (let (($x13289 (or $x1394 $x3661 (<= (+ A_2 ?x479 L_3 (* (- 1.0) A_3) C) 0.0))))
 (let (($x1174 (not (= L_0 L_1))))
 (let (($x74 (= L_3 L_2)))
 (let (($x12566 (or $x74 $x1174 (<= (+ A_1 ?x479 L_3 (* (- 1.0) A_3) (* 2.0 C)) 0.0))))
 (let (($x2579 (not (= L_1 L_2))))
 (let (($x7582 (or $x54 $x2579 (<= (+ A_2 (* (- 1.0) A_1) (* (- 1.0) C)) 0.0))))
 (let ((?x328 (* (- 1.0) L_3)))
 (let ((?x329 (+ A_3 ?x328)))
 (let (($x2272 (= L_2 L_0)))
 (let (($x7453 (or $x1174 $x2272 (<= (+ A_1 ?x479 L_2 (* (- 1.0) A_2) C) 0.0))))
 (let (($x64 (= L_2 L_1)))
 (let (($x125 (>= A_4 A_3)))
 (let (($x36 (>= L_0 L0)))
 (let (($x111 (>= S_1 S_0)))
 (let (($x114 (>= S_2 S_1)))
 (let (($x117 (>= S_3 S_2)))
 (let (($x123 (>= A_2 A_1)))
 (let (($x124 (>= A_3 A_2)))
 (and (<= (+ A_2 ?x473) S_4) (<= ?x744 S_3) $x124 $x123 $x117 $x114 $x111 $x36 $x125 (or $x54 (<= S_1 (+ A_1 (* (- 1.0) L_1) ?x536))) (or $x74 (<= S_3 (+ A_3 ?x328 ?x536))) (or $x64 (<= S_2 (+ A_2 ?x473 ?x536))) (not (<= (+ A_1 (* (- 1.0) L_1)) S_3)) (or $x74 (<= S_4 (+ A_3 ?x328 ?x536 C))) (or $x74 $x819) (or $x1174 (<= (+ ?x536 A_1 (* (- 1.0) C)) A_0)) (<= (+ ?x536 (* (- 1.0) L_1) A_1 (* (- 1.0) C)) ?x744) (or $x54 (<= S_0 (+ ?x536 (* (- 1.0) L_1) A_1 (* (- 1.0) C)))) (>= S_3 (+ A_2 ?x473 ?x536)) (or $x64 (<= S_1 (+ ?x536 ?x473 A_2 (* (- 1.0) C)))) (>= S_2 (+ A_1 (* (- 1.0) L_1) ?x536)) (or $x64 (not (<= L_2 L_1))) (or (not (= L_2 L_3)) (>= S_4 (+ A_3 ?x473 ?x536))) (>= S_0 (+ ?x536 (* (- 1.0) L_1) A_1 ?x1042)) (or $x54 $x64 (= (+ A_2 ?x473) (+ A_1 (* (- 1.0) L_1) C))) (or $x64 (not (= L_2 L_3)) $x7362) (or $x64 $x74 (= ?x329 (+ A_2 ?x473 C))) (or $x64 (<= S_4 (+ A_2 ?x473 ?x536 (* 2.0 C)))) (or $x54 (not (<= L_1 L_0))) (>= S_4 (+ A_3 ?x328 ?x536)) (>= S_3 (+ ?x536 ?x328 A_3 (* (- 1.0) C))) (>= S_2 (+ ?x536 ?x473 A_2 (* (- 1.0) C))) (>= S_0 (+ ?x536 ?x473 A_2 (* (- 3.0) C))) $x7453 (or $x74 (<= S_2 (+ ?x536 ?x328 A_3 (* (- 1.0) C)))) (>= S_1 ?x459) (or $x64 (<= S_0 ?x459)) (>= S_1 (+ ?x536 ?x328 A_3 (* (- 3.0) C))) (<= (+ ?x536 ?x328 A_3 (* (- 3.0) C)) ?x744) (>= S_1 (+ ?x536 (* (- 1.0) L_1) A_1 (* (- 1.0) C))) (or $x54 (<= S_2 (+ A_1 (* (- 1.0) L_1) ?x536 C))) (<= S_4 (+ A_4 ?x473)) (>= S_3 (+ A_1 (* (- 1.0) L_1) ?x536 C)) (<= (+ C S_1 (* (- 1.0) S_3)) 0.0) (or $x54 $x74 (= ?x329 (+ A_1 (* (- 1.0) L_1) (* 2.0 C)))) $x7582 (or $x74 (<= S_1 (+ ?x536 ?x328 A_3 ?x1042))) (<= (+ ?x1042 S_1 (* (- 1.0) S_0)) 0.0) (<= (+ C (* (- 1.0) S_2) S_0) 0.0) (or $x74 (<= S_0 (+ ?x536 ?x328 A_3 (* (- 3.0) C)))) (>= S_2 (+ ?x536 ?x328 A_3 ?x1042)) $x12566 $x13289 (>= S_0 (+ ?x536 ?x328 A_3 (* (- 4.0) C))) (or $x54 (<= S_4 (+ A_1 (* (- 1.0) L_1) ?x536 (* 3.0 C)))) (or $x54 (<= S_3 (+ A_1 (* (- 1.0) L_1) ?x536 (* 2.0 C)))) (or (>= S_4 (+ A_1 (* (- 1.0) L_1) ?x536 (* 2.0 C))) $x7655) (or $x3620 (not $x7655)) (or $x54 $x819 $x7362 (<= (+ A_3 (* (- 1.0) A_1) ?x1042) 0.0)) (<= ?x459 ?x744) (<= (+ ?x1042 L_0 S_2 (* (- 1.0) A_0)) 0.0) (<= (+ (* (- 3.0) C) S_2 (* (- 1.0) S_0)) 0.0) (<= (+ (* (- 1.0) C) L_0 S_1 (* (- 1.0) A_0)) 0.0) (<= (+ (* 2.0 C) (* (- 1.0) S_3) S_0) 0.0) (<= (+ ?x1042 S_2 (* (- 1.0) S_1)) 0.0) (<= S_4 (+ A_3 (* (- 1.0) L_1) C)) (<= (+ ?x1042 (* (- 1.0) S_3) S_4) 0.0) (<= (+ (* (- 4.0) C) L_0 S_4 (* (- 1.0) A_0)) 0.0) (or $x3620 (<= (+ C S_2 (* (- 1.0) S_4)) 0.0)) (or $x3620 (<= (+ (* 2.0 C) S_1 (* (- 1.0) S_4)) 0.0)) (<= (+ (* (- 5.0) C) (* (- 1.0) S_0) S_4) 0.0) (<= (+ (* (- 3.0) C) (* (- 1.0) S_2) S_4) 0.0) (<= (+ (* (- 3.0) C) (* (- 1.0) S_1) S_3) 0.0) (<= (+ ?x1042 (* (- 1.0) S_2) S_3) 0.0) (<= (+ (* (- 3.0) C) L_0 S_3 (* (- 1.0) A_0)) 0.0) (or $x3620 (<= (+ (* 3.0 C) S_0 (* (- 1.0) S_4)) 0.0)) (<= (+ (* (- 4.0) C) (* (- 1.0) S_1) S_4) 0.0) (<= (+ (* (- 4.0) C) S_3 (* (- 1.0) S_0)) 0.0) $x559 $x37 (<= (+ L_0 S_0 (* (- 1.0) A_0)) 0.0))))))))))))))))))))))))))))))))))))
(check-sat)
